(set-info :smt-lib-version 2.6)
(set-logic QF_NIA)
(set-info :source |AProve team, see http://aprove.informatik.rwth-aachen.de/, submitted for SMT-COMP 2014|)
(set-info :category "industrial")
(set-info :status unknown)
(declare-fun b__122 () Int)
(declare-fun a__2 () Int)
(declare-fun a__4 () Int)
(declare-fun a__6 () Int)
(declare-fun a__8 () Int)
(declare-fun a__10 () Int)
(declare-fun a__5 () Int)
(declare-fun a__11 () Int)
(declare-fun a__7 () Int)
(declare-fun a__12 () Int)
(declare-fun a__15 () Int)
(declare-fun a__13 () Int)
(declare-fun a__14 () Int)
(declare-fun a__16 () Int)
(declare-fun a__19 () Int)
(declare-fun a__17 () Int)
(declare-fun a__20 () Int)
(declare-fun a__23 () Int)
(declare-fun a__21 () Int)
(declare-fun a__18 () Int)
(declare-fun a__24 () Int)
(declare-fun a__22 () Int)
(declare-fun a__25 () Int)
(declare-fun a__27 () Int)
(declare-fun a__26 () Int)
(declare-fun a__28 () Int)
(declare-fun a__29 () Int)
(declare-fun a__30 () Int)
(declare-fun a__32 () Int)
(declare-fun a__35 () Int)
(declare-fun a__33 () Int)
(declare-fun a__31 () Int)
(declare-fun a__36 () Int)
(declare-fun a__34 () Int)
(declare-fun a__37 () Int)
(declare-fun a__39 () Int)
(declare-fun a__38 () Int)
(declare-fun a__40 () Int)
(declare-fun a__41 () Int)
(declare-fun a__42 () Int)
(declare-fun a__44 () Int)
(declare-fun a__45 () Int)
(declare-fun a__43 () Int)
(declare-fun a__46 () Int)
(declare-fun a__47 () Int)
(declare-fun a__48 () Int)
(declare-fun a__49 () Int)
(declare-fun a__50 () Int)
(declare-fun a__53 () Int)
(declare-fun a__54 () Int)
(declare-fun a__51 () Int)
(declare-fun a__55 () Int)
(declare-fun a__52 () Int)
(declare-fun a__56 () Int)
(declare-fun a__57 () Int)
(declare-fun a__58 () Int)
(declare-fun a__59 () Int)
(declare-fun a__60 () Int)
(declare-fun a__61 () Int)
(declare-fun a__62 () Int)
(declare-fun a__63 () Int)
(declare-fun a__64 () Int)
(declare-fun a__65 () Int)
(declare-fun a__66 () Int)
(declare-fun a__67 () Int)
(declare-fun a__68 () Int)
(declare-fun a__70 () Int)
(declare-fun a__69 () Int)
(declare-fun a__71 () Int)
(declare-fun a__72 () Int)
(declare-fun a__73 () Int)
(declare-fun a__75 () Int)
(declare-fun a__76 () Int)
(declare-fun a__74 () Int)
(declare-fun a__77 () Int)
(declare-fun a__78 () Int)
(declare-fun a__79 () Int)
(declare-fun a__80 () Int)
(declare-fun a__81 () Int)
(declare-fun a__82 () Int)
(declare-fun a__85 () Int)
(declare-fun a__86 () Int)
(declare-fun a__83 () Int)
(declare-fun a__87 () Int)
(declare-fun a__84 () Int)
(declare-fun a__88 () Int)
(declare-fun a__89 () Int)
(declare-fun a__90 () Int)
(declare-fun a__91 () Int)
(declare-fun a__92 () Int)
(declare-fun a__93 () Int)
(declare-fun a__94 () Int)
(declare-fun a__95 () Int)
(declare-fun a__96 () Int)
(declare-fun a__97 () Int)
(declare-fun a__98 () Int)
(declare-fun a__99 () Int)
(declare-fun a__100 () Int)
(declare-fun a__101 () Int)
(declare-fun a__102 () Int)
(declare-fun a__103 () Int)
(declare-fun a__106 () Int)
(declare-fun a__107 () Int)
(declare-fun a__104 () Int)
(declare-fun a__108 () Int)
(declare-fun a__105 () Int)
(declare-fun a__109 () Int)
(declare-fun a__110 () Int)
(declare-fun a__111 () Int)
(declare-fun a__112 () Int)
(declare-fun a__113 () Int)
(declare-fun a__114 () Int)
(declare-fun a__115 () Int)
(declare-fun a__116 () Int)
(declare-fun a__117 () Int)
(declare-fun a__119 () Int)
(declare-fun a__118 () Int)
(declare-fun a__120 () Int)
(declare-fun a__121 () Int)
(declare-fun a__9 () Int)
(declare-fun a__3 () Int)
(assert (and (>= (+ 1 (* (- 0 1) b__122)) 0) (= (+ (* b__122 a__2) (* (- 0 1) a__2)) 0) (>= (+ (* a__4 a__2) (* (- 0 1) (* a__6 a__2))) 0) (>= (+ (* a__8 a__2) (* (- 0 1) (* a__10 a__2))) 0) (>= (+ (* b__122 a__5) (* b__122 a__11 a__6) (* (- 0 1) (* b__122 a__7)) (* (- 0 1) (* b__122 a__12 a__8)) (* (- 0 1) (* b__122 a__15 a__13 a__8)) (* (- 0 1) (* b__122 a__11 a__14 a__8))) 0) (>= (+ (* b__122 a__5) (* b__122 a__16 a__6) (* b__122 a__19 a__17 a__6) (* (- 0 1) (* b__122 a__7)) (* (- 0 1) (* b__122 a__20 a__8)) (* (- 0 1) (* b__122 a__23 a__21 a__8))) 0) (>= (+ (* b__122 a__18 a__6) (* (- 0 1) (* b__122 a__24 a__21 a__8)) (* (- 0 1) (* b__122 a__22 a__8))) 0) (>= (+ (* b__122 a__5) (* b__122 a__20 a__6) (* b__122 a__19 a__21 a__6) (* (- 0 1) (* b__122 a__7)) (* (- 0 1) (* b__122 a__25 a__8)) (* (- 0 1) (* b__122 a__27 a__26 a__8))) 0) (>= (+ (* b__122 a__22 a__6) (* (- 0 1) (* b__122 a__28 a__26 a__8))) 0) (>= (+ (* b__122 a__5) (* b__122 a__25 a__6) (* b__122 a__19 a__26 a__6) (* (- 0 1) (* b__122 a__7)) (* (- 0 1) (* b__122 a__19 a__8))) 0) (>= (+ (* b__122 a__5) (* b__122 a__29 a__6) (* b__122 a__19 a__30 a__6) (* (- 0 1) (* b__122 a__7)) (* (- 0 1) (* b__122 a__32 a__8)) (* (- 0 1) (* b__122 a__35 a__33 a__8))) 0) (>= (+ (* b__122 a__31 a__6) (* (- 0 1) (* b__122 a__36 a__33 a__8)) (* (- 0 1) (* b__122 a__34 a__8))) 0) (>= (+ (* b__122 a__5) (* b__122 a__32 a__6) (* b__122 a__19 a__33 a__6) (* (- 0 1) (* b__122 a__7)) (* (- 0 1) (* b__122 a__37 a__8)) (* (- 0 1) (* b__122 a__39 a__38 a__8))) 0) (>= (+ (* b__122 a__34 a__6) (* (- 0 1) (* b__122 a__40 a__38 a__8))) 0) (>= (+ (* b__122 a__5) (* b__122 a__37 a__6) (* b__122 a__19 a__38 a__6) (* (- 0 1) (* b__122 a__7)) (* (- 0 1) (* b__122 a__19 a__8))) 0) (>= (+ (* b__122 a__5) (* b__122 a__41 a__6) (* b__122 a__19 a__42 a__6) (* (- 0 1) (* b__122 a__7)) (* (- 0 1) (* b__122 a__44 a__8)) (* (- 0 1) (* b__122 a__23 a__45 a__8))) 0) (>= (+ (* b__122 a__43 a__6) (* (- 0 1) (* b__122 a__24 a__45 a__8)) (* (- 0 1) (* b__122 a__46 a__8))) 0) (>= (+ (* b__122 a__5) (* b__122 a__44 a__6) (* b__122 a__19 a__45 a__6) (* (- 0 1) (* b__122 a__7)) (* (- 0 1) (* b__122 a__47 a__8)) (* (- 0 1) (* b__122 a__27 a__48 a__8))) 0) (>= (+ (* b__122 a__46 a__6) (* (- 0 1) (* b__122 a__28 a__48 a__8))) 0) (>= (+ (* b__122 a__5) (* b__122 a__47 a__6) (* b__122 a__19 a__48 a__6) (* (- 0 1) (* b__122 a__7)) (* (- 0 1) (* b__122 a__19 a__8))) 0) (>= (+ (* b__122 a__5) (* b__122 a__49 a__6) (* b__122 a__19 a__50 a__6) (* (- 0 1) (* b__122 a__7)) (* (- 0 1) (* b__122 a__53 a__8)) (* (- 0 1) (* b__122 a__35 a__54 a__8))) 0) (>= (+ (* b__122 a__51 a__6) (* (- 0 1) (* b__122 a__36 a__54 a__8)) (* (- 0 1) (* b__122 a__55 a__8))) 0) (>= (+ (* b__122 a__52 a__6) (* (- 0 1) (* b__122 a__56 a__8))) 0) (>= (+ (* b__122 a__5) (* b__122 a__53 a__6) (* b__122 a__19 a__54 a__6) (* (- 0 1) (* b__122 a__7)) (* (- 0 1) (* b__122 a__57 a__8)) (* (- 0 1) (* b__122 a__23 a__58 a__8))) 0) (>= (+ (* b__122 a__55 a__6) (* (- 0 1) (* b__122 a__59 a__8))) 0) (>= (+ (* b__122 a__56 a__6) (* (- 0 1) (* b__122 a__24 a__58 a__8)) (* (- 0 1) (* b__122 a__60 a__8))) 0) (>= (+ (* b__122 a__5) (* b__122 a__57 a__6) (* b__122 a__19 a__58 a__6) (* (- 0 1) (* b__122 a__7)) (* (- 0 1) (* b__122 a__61 a__8)) (* (- 0 1) (* b__122 a__23 a__62 a__8))) 0) (>= (+ (* b__122 a__59 a__6) (* (- 0 1) (* b__122 a__63 a__8))) 0) (>= (+ (* b__122 a__60 a__6) (* (- 0 1) (* b__122 a__24 a__62 a__8)) (* (- 0 1) (* b__122 a__64 a__8))) 0) (>= (+ (* b__122 a__5) (* b__122 a__61 a__6) (* b__122 a__19 a__62 a__6) (* (- 0 1) (* b__122 a__7)) (* (- 0 1) (* b__122 a__65 a__8)) (* (- 0 1) (* b__122 a__39 a__66 a__8))) 0) (>= (+ (* b__122 a__63 a__6) (* (- 0 1) (* b__122 a__40 a__66 a__8))) 0) (>= (+ (* b__122 a__64 a__6) (* (- 0 1) (* b__122 a__67 a__8))) 0) (>= (+ (* b__122 a__5) (* b__122 a__65 a__6) (* b__122 a__19 a__66 a__6) (* (- 0 1) (* b__122 a__7)) (* (- 0 1) (* b__122 a__68 a__8)) (* (- 0 1) (* b__122 a__70 a__69 a__8))) 0) (>= (+ (* b__122 a__67 a__6) (* (- 0 1) (* b__122 a__71 a__69 a__8))) 0) (>= (+ (* b__122 a__5) (* b__122 a__68 a__6) (* b__122 a__19 a__69 a__6) (* (- 0 1) (* b__122 a__7)) (* (- 0 1) (* b__122 a__19 a__8))) 0) (>= (+ (* b__122 a__5) (* b__122 a__72 a__6) (* b__122 a__19 a__73 a__6) (* (- 0 1) (* b__122 a__7)) (* (- 0 1) (* b__122 a__75 a__8)) (* (- 0 1) (* b__122 a__23 a__76 a__8))) 0) (>= (+ (* b__122 a__74 a__6) (* (- 0 1) (* b__122 a__24 a__76 a__8))) 0) (>= (+ (* b__122 a__5) (* b__122 a__75 a__6) (* b__122 a__19 a__76 a__6) (* (- 0 1) (* b__122 a__7)) (* (- 0 1) (* b__122 a__19 a__8))) 0) (>= (+ (* b__122 a__5) (* b__122 a__77 a__6) (* b__122 a__19 a__78 a__6) (* (- 0 1) (* b__122 a__7)) (* (- 0 1) (* b__122 a__19 a__8))) 0) (>= (+ (* b__122 a__5) (* b__122 a__79 a__6) (* b__122 a__19 a__80 a__6) (* (- 0 1) (* b__122 a__7)) (* (- 0 1) (* b__122 a__19 a__8))) 0) (>= (+ (* b__122 a__5) (* b__122 a__81 a__6) (* b__122 a__19 a__82 a__6) (* (- 0 1) (* b__122 a__7)) (* (- 0 1) (* b__122 a__85 a__8)) (* (- 0 1) (* b__122 a__35 a__86 a__8))) 0) (>= (+ (* b__122 a__83 a__6) (* (- 0 1) (* b__122 a__36 a__86 a__8)) (* (- 0 1) (* b__122 a__87 a__8))) 0) (>= (+ (* b__122 a__84 a__6) (* (- 0 1) (* b__122 a__88 a__8))) 0) (>= (+ (* b__122 a__5) (* b__122 a__85 a__6) (* b__122 a__19 a__86 a__6) (* (- 0 1) (* b__122 a__7)) (* (- 0 1) (* b__122 a__89 a__8)) (* (- 0 1) (* b__122 a__23 a__90 a__8))) 0) (>= (+ (* b__122 a__87 a__6) (* (- 0 1) (* b__122 a__91 a__8))) 0) (>= (+ (* b__122 a__88 a__6) (* (- 0 1) (* b__122 a__24 a__90 a__8)) (* (- 0 1) (* b__122 a__92 a__8))) 0) (>= (+ (* b__122 a__5) (* b__122 a__89 a__6) (* b__122 a__19 a__90 a__6) (* (- 0 1) (* b__122 a__7)) (* (- 0 1) (* b__122 a__93 a__8)) (* (- 0 1) (* b__122 a__23 a__94 a__8))) 0) (>= (+ (* b__122 a__91 a__6) (* (- 0 1) (* b__122 a__95 a__8))) 0) (>= (+ (* b__122 a__92 a__6) (* (- 0 1) (* b__122 a__24 a__94 a__8)) (* (- 0 1) (* b__122 a__96 a__8))) 0) (>= (+ (* b__122 a__5) (* b__122 a__93 a__6) (* b__122 a__19 a__94 a__6) (* (- 0 1) (* b__122 a__7)) (* (- 0 1) (* b__122 a__97 a__8)) (* (- 0 1) (* b__122 a__39 a__98 a__8))) 0) (>= (+ (* b__122 a__95 a__6) (* (- 0 1) (* b__122 a__40 a__98 a__8))) 0) (>= (+ (* b__122 a__96 a__6) (* (- 0 1) (* b__122 a__99 a__8))) 0) (>= (+ (* b__122 a__5) (* b__122 a__97 a__6) (* b__122 a__19 a__98 a__6) (* (- 0 1) (* b__122 a__7)) (* (- 0 1) (* b__122 a__100 a__8)) (* (- 0 1) (* b__122 a__27 a__101 a__8))) 0) (>= (+ (* b__122 a__99 a__6) (* (- 0 1) (* b__122 a__28 a__101 a__8))) 0) (>= (+ (* b__122 a__5) (* b__122 a__100 a__6) (* b__122 a__19 a__101 a__6) (* (- 0 1) (* b__122 a__7)) (* (- 0 1) (* b__122 a__19 a__8))) 0) (>= (+ (* b__122 a__5) (* b__122 a__102 a__6) (* b__122 a__19 a__103 a__6) (* (- 0 1) (* b__122 a__7)) (* (- 0 1) (* b__122 a__106 a__8)) (* (- 0 1) (* b__122 a__23 a__107 a__8))) 0) (>= (+ (* b__122 a__104 a__6) (* (- 0 1) (* b__122 a__24 a__107 a__8)) (* (- 0 1) (* b__122 a__108 a__8))) 0) (>= (+ (* b__122 a__105 a__6) (* (- 0 1) (* b__122 a__109 a__8))) 0) (>= (+ (* b__122 a__5) (* b__122 a__106 a__6) (* b__122 a__19 a__107 a__6) (* (- 0 1) (* b__122 a__7)) (* (- 0 1) (* b__122 a__110 a__8)) (* (- 0 1) (* b__122 a__39 a__111 a__8))) 0) (>= (+ (* b__122 a__108 a__6) (* (- 0 1) (* b__122 a__112 a__8))) 0) (>= (+ (* b__122 a__109 a__6) (* (- 0 1) (* b__122 a__40 a__111 a__8)) (* (- 0 1) (* b__122 a__113 a__8))) 0) (>= (+ (* b__122 a__5) (* b__122 a__110 a__6) (* b__122 a__19 a__111 a__6) (* (- 0 1) (* b__122 a__7)) (* (- 0 1) (* b__122 a__114 a__8)) (* (- 0 1) (* b__122 a__35 a__115 a__8))) 0) (>= (+ (* b__122 a__112 a__6) (* (- 0 1) (* b__122 a__116 a__8))) 0) (>= (+ (* b__122 a__113 a__6) (* (- 0 1) (* b__122 a__36 a__115 a__8))) 0) (>= (+ (* b__122 a__5) (* b__122 a__114 a__6) (* b__122 a__19 a__115 a__6) (* (- 0 1) (* b__122 a__7)) (* (- 0 1) (* b__122 a__117 a__8)) (* (- 0 1) (* b__122 a__119 a__118 a__8))) 0) (>= (+ (* b__122 a__116 a__6) (* (- 0 1) (* b__122 a__120 a__118 a__8))) 0) (>= (+ (* b__122 a__5) (* b__122 a__39 a__6) (* b__122 a__15 a__40 a__6) (* (- 0 1) (* b__122 a__7)) (* (- 0 1) (* b__122 a__19 a__8))) 0) (>= (+ (* b__122 a__5) (* b__122 a__39 a__6) (* b__122 a__119 a__40 a__6) (* (- 0 1) (* b__122 a__7)) (* (- 0 1) (* b__122 a__16 a__8)) (* (- 0 1) (* b__122 a__23 a__17 a__8))) 0) (>= (+ (* b__122 a__120 a__40 a__6) (* (- 0 1) (* b__122 a__24 a__17 a__8)) (* (- 0 1) (* b__122 a__18 a__8))) 0) (>= (+ (* b__122 a__5) (* b__122 a__39 a__6) (* b__122 a__117 a__40 a__6) (* (- 0 1) (* b__122 a__7)) (* (- 0 1) (* b__122 a__29 a__8)) (* (- 0 1) (* b__122 a__35 a__30 a__8))) 0) (>= (+ (* b__122 a__118 a__40 a__6) (* (- 0 1) (* b__122 a__36 a__30 a__8)) (* (- 0 1) (* b__122 a__31 a__8))) 0) (>= (+ (* b__122 a__5) (* b__122 a__70 a__6) (* (- 0 1) (* b__122 a__7)) (* (- 0 1) (* b__122 a__41 a__8)) (* (- 0 1) (* b__122 a__23 a__42 a__8))) 0) (>= (+ (* b__122 a__71 a__6) (* (- 0 1) (* b__122 a__24 a__42 a__8)) (* (- 0 1) (* b__122 a__43 a__8))) 0) (>= (+ (* b__122 a__5) (* b__122 a__70 a__6) (* b__122 a__11 a__71 a__6) (* (- 0 1) (* b__122 a__7)) (* (- 0 1) (* b__122 a__19 a__8))) 0) (>= (+ (* b__122 a__5) (* b__122 a__70 a__6) (* b__122 a__12 a__71 a__6) (* (- 0 1) (* b__122 a__7)) (* (- 0 1) (* b__122 a__49 a__8)) (* (- 0 1) (* b__122 a__35 a__50 a__8))) 0) (>= (+ (* b__122 a__13 a__71 a__6) (* (- 0 1) (* b__122 a__36 a__50 a__8)) (* (- 0 1) (* b__122 a__51 a__8))) 0) (>= (+ (* b__122 a__14 a__71 a__6) (* (- 0 1) (* b__122 a__52 a__8))) 0) (>= (+ (* b__122 a__5) (* b__122 a__23 a__6) (* b__122 a__121 a__24 a__6) (* (- 0 1) (* b__122 a__7)) (* (- 0 1) (* b__122 a__19 a__8))) 0) (>= (+ (* b__122 a__5) (* b__122 a__23 a__6) (* b__122 a__11 a__24 a__6) (* (- 0 1) (* b__122 a__7)) (* (- 0 1) (* b__122 a__19 a__8))) 0) (>= (+ (* b__122 a__5) (* b__122 a__23 a__6) (* b__122 a__12 a__24 a__6) (* (- 0 1) (* b__122 a__7)) (* (- 0 1) (* b__122 a__72 a__8)) (* (- 0 1) (* b__122 a__35 a__73 a__8))) 0) (>= (+ (* b__122 a__13 a__24 a__6) (* (- 0 1) (* b__122 a__36 a__73 a__8))) 0) (>= (+ (* b__122 a__14 a__24 a__6) (* (- 0 1) (* b__122 a__74 a__8))) 0) (>= (+ (* b__122 a__5) (* b__122 a__35 a__6) (* b__122 a__15 a__36 a__6) (* (- 0 1) (* b__122 a__7)) (* (- 0 1) (* b__122 a__19 a__8))) 0) (>= (+ (* b__122 a__5) (* b__122 a__35 a__6) (* b__122 a__119 a__36 a__6) (* (- 0 1) (* b__122 a__7)) (* (- 0 1) (* b__122 a__77 a__8)) (* (- 0 1) (* b__122 a__23 a__78 a__8))) 0) (>= (+ (* b__122 a__120 a__36 a__6) (* (- 0 1) (* b__122 a__24 a__78 a__8))) 0) (>= (+ (* b__122 a__5) (* b__122 a__35 a__6) (* b__122 a__117 a__36 a__6) (* (- 0 1) (* b__122 a__7)) (* (- 0 1) (* b__122 a__79 a__8)) (* (- 0 1) (* b__122 a__35 a__80 a__8))) 0) (>= (+ (* b__122 a__118 a__36 a__6) (* (- 0 1) (* b__122 a__36 a__80 a__8))) 0) (>= (+ (* b__122 a__5) (* b__122 a__27 a__6) (* b__122 a__121 a__28 a__6) (* (- 0 1) (* b__122 a__7)) (* (- 0 1) (* b__122 a__19 a__8))) 0) (>= (+ (* b__122 a__5) (* b__122 a__27 a__6) (* b__122 a__12 a__28 a__6) (* (- 0 1) (* b__122 a__7)) (* (- 0 1) (* b__122 a__81 a__8)) (* (- 0 1) (* b__122 a__35 a__82 a__8))) 0) (>= (+ (* b__122 a__13 a__28 a__6) (* (- 0 1) (* b__122 a__36 a__82 a__8)) (* (- 0 1) (* b__122 a__83 a__8))) 0) (>= (+ (* b__122 a__14 a__28 a__6) (* (- 0 1) (* b__122 a__84 a__8))) 0) (>= (+ (* b__122 a__5) (* b__122 a__119 a__6) (* b__122 a__121 a__120 a__6) (* (- 0 1) (* b__122 a__7)) (* (- 0 1) (* b__122 a__15 a__8))) 0) (>= (+ (* b__122 a__5) (* b__122 a__119 a__6) (* b__122 a__12 a__120 a__6) (* (- 0 1) (* b__122 a__7)) (* (- 0 1) (* b__122 a__102 a__8)) (* (- 0 1) (* b__122 a__27 a__103 a__8))) 0) (>= (+ (* b__122 a__13 a__120 a__6) (* (- 0 1) (* b__122 a__105 a__8))) 0) (>= (+ (* b__122 a__14 a__120 a__6) (* (- 0 1) (* b__122 a__28 a__103 a__8)) (* (- 0 1) (* b__122 a__104 a__8))) 0) (>= (+ (* b__122 a__5) (* b__122 a__12 a__6) (* (- 0 1) (* b__122 a__12)) (* (- 0 1) (* b__122 a__5 a__13))) 0) (>= (+ (* b__122 a__14 a__6) (* (- 0 1) (* b__122 a__14))) 0) (>= (+ (* b__122 a__5) (* b__122 a__16 a__6) (* (- 0 1) (* b__122 a__16)) (* (- 0 1) (* b__122 a__5 a__17))) 0) (>= (+ (* b__122 a__18 a__6) (* (- 0 1) (* b__122 a__18))) 0) (>= (+ (* b__122 a__5) (* b__122 a__20 a__6) (* (- 0 1) (* b__122 a__20)) (* (- 0 1) (* b__122 a__5 a__21))) 0) (>= (+ (* b__122 a__22 a__6) (* (- 0 1) (* b__122 a__22))) 0) (>= (+ (* b__122 a__5) (* b__122 a__25 a__6) (* (- 0 1) (* b__122 a__25)) (* (- 0 1) (* b__122 a__5 a__26))) 0) (>= (+ (* b__122 a__5) (* b__122 a__29 a__6) (* (- 0 1) (* b__122 a__29)) (* (- 0 1) (* b__122 a__5 a__30))) 0) (>= (+ (* b__122 a__31 a__6) (* (- 0 1) (* b__122 a__31))) 0) (>= (+ (* b__122 a__5) (* b__122 a__32 a__6) (* (- 0 1) (* b__122 a__32)) (* (- 0 1) (* b__122 a__5 a__33))) 0) (>= (+ (* b__122 a__34 a__6) (* (- 0 1) (* b__122 a__34))) 0) (>= (+ (* b__122 a__5) (* b__122 a__37 a__6) (* (- 0 1) (* b__122 a__37)) (* (- 0 1) (* b__122 a__5 a__38))) 0) (>= (+ (* b__122 a__5) (* b__122 a__41 a__6) (* (- 0 1) (* b__122 a__41)) (* (- 0 1) (* b__122 a__5 a__42))) 0) (>= (+ (* b__122 a__43 a__6) (* (- 0 1) (* b__122 a__43))) 0) (>= (+ (* b__122 a__5) (* b__122 a__44 a__6) (* (- 0 1) (* b__122 a__44)) (* (- 0 1) (* b__122 a__5 a__45))) 0) (>= (+ (* b__122 a__46 a__6) (* (- 0 1) (* b__122 a__46))) 0) (>= (+ (* b__122 a__5) (* b__122 a__47 a__6) (* (- 0 1) (* b__122 a__47)) (* (- 0 1) (* b__122 a__5 a__48))) 0) (>= (+ (* b__122 a__5) (* b__122 a__49 a__6) (* (- 0 1) (* b__122 a__49)) (* (- 0 1) (* b__122 a__5 a__50))) 0) (>= (+ (* b__122 a__51 a__6) (* (- 0 1) (* b__122 a__51))) 0) (>= (+ (* b__122 a__52 a__6) (* (- 0 1) (* b__122 a__52))) 0) (>= (+ (* b__122 a__5) (* b__122 a__53 a__6) (* (- 0 1) (* b__122 a__53)) (* (- 0 1) (* b__122 a__5 a__54))) 0) (>= (+ (* b__122 a__55 a__6) (* (- 0 1) (* b__122 a__55))) 0) (>= (+ (* b__122 a__56 a__6) (* (- 0 1) (* b__122 a__56))) 0) (>= (+ (* b__122 a__5) (* b__122 a__57 a__6) (* (- 0 1) (* b__122 a__57)) (* (- 0 1) (* b__122 a__5 a__58))) 0) (>= (+ (* b__122 a__59 a__6) (* (- 0 1) (* b__122 a__59))) 0) (>= (+ (* b__122 a__60 a__6) (* (- 0 1) (* b__122 a__60))) 0) (>= (+ (* b__122 a__5) (* b__122 a__61 a__6) (* (- 0 1) (* b__122 a__61)) (* (- 0 1) (* b__122 a__5 a__62))) 0) (>= (+ (* b__122 a__63 a__6) (* (- 0 1) (* b__122 a__63))) 0) (>= (+ (* b__122 a__64 a__6) (* (- 0 1) (* b__122 a__64))) 0) (>= (+ (* b__122 a__5) (* b__122 a__65 a__6) (* (- 0 1) (* b__122 a__65)) (* (- 0 1) (* b__122 a__5 a__66))) 0) (>= (+ (* b__122 a__67 a__6) (* (- 0 1) (* b__122 a__67))) 0) (>= (+ (* b__122 a__5) (* b__122 a__68 a__6) (* (- 0 1) (* b__122 a__68)) (* (- 0 1) (* b__122 a__5 a__69))) 0) (>= (+ (* b__122 a__5) (* b__122 a__72 a__6) (* (- 0 1) (* b__122 a__72)) (* (- 0 1) (* b__122 a__5 a__73))) 0) (>= (+ (* b__122 a__74 a__6) (* (- 0 1) (* b__122 a__74))) 0) (>= (+ (* b__122 a__5) (* b__122 a__75 a__6) (* (- 0 1) (* b__122 a__75)) (* (- 0 1) (* b__122 a__5 a__76))) 0) (>= (+ (* b__122 a__5) (* b__122 a__77 a__6) (* (- 0 1) (* b__122 a__77)) (* (- 0 1) (* b__122 a__5 a__78))) 0) (>= (+ (* b__122 a__5) (* b__122 a__79 a__6) (* (- 0 1) (* b__122 a__79)) (* (- 0 1) (* b__122 a__5 a__80))) 0) (>= (+ (* b__122 a__5) (* b__122 a__81 a__6) (* (- 0 1) (* b__122 a__81)) (* (- 0 1) (* b__122 a__5 a__82))) 0) (>= (+ (* b__122 a__83 a__6) (* (- 0 1) (* b__122 a__83))) 0) (>= (+ (* b__122 a__84 a__6) (* (- 0 1) (* b__122 a__84))) 0) (>= (+ (* b__122 a__5) (* b__122 a__85 a__6) (* (- 0 1) (* b__122 a__85)) (* (- 0 1) (* b__122 a__5 a__86))) 0) (>= (+ (* b__122 a__87 a__6) (* (- 0 1) (* b__122 a__87))) 0) (>= (+ (* b__122 a__88 a__6) (* (- 0 1) (* b__122 a__88))) 0) (>= (+ (* b__122 a__5) (* b__122 a__89 a__6) (* (- 0 1) (* b__122 a__89)) (* (- 0 1) (* b__122 a__5 a__90))) 0) (>= (+ (* b__122 a__91 a__6) (* (- 0 1) (* b__122 a__91))) 0) (>= (+ (* b__122 a__92 a__6) (* (- 0 1) (* b__122 a__92))) 0) (>= (+ (* b__122 a__5) (* b__122 a__93 a__6) (* (- 0 1) (* b__122 a__93)) (* (- 0 1) (* b__122 a__5 a__94))) 0) (>= (+ (* b__122 a__95 a__6) (* (- 0 1) (* b__122 a__95))) 0) (>= (+ (* b__122 a__96 a__6) (* (- 0 1) (* b__122 a__96))) 0) (>= (+ (* b__122 a__5) (* b__122 a__97 a__6) (* (- 0 1) (* b__122 a__97)) (* (- 0 1) (* b__122 a__5 a__98))) 0) (>= (+ (* b__122 a__99 a__6) (* (- 0 1) (* b__122 a__99))) 0) (>= (+ (* b__122 a__5) (* b__122 a__100 a__6) (* (- 0 1) (* b__122 a__100)) (* (- 0 1) (* b__122 a__5 a__101))) 0) (>= (+ (* b__122 a__5) (* b__122 a__102 a__6) (* (- 0 1) (* b__122 a__102)) (* (- 0 1) (* b__122 a__5 a__103))) 0) (>= (+ (* b__122 a__104 a__6) (* (- 0 1) (* b__122 a__104))) 0) (>= (+ (* b__122 a__105 a__6) (* (- 0 1) (* b__122 a__105))) 0) (>= (+ (* b__122 a__5) (* b__122 a__106 a__6) (* (- 0 1) (* b__122 a__106)) (* (- 0 1) (* b__122 a__5 a__107))) 0) (>= (+ (* b__122 a__108 a__6) (* (- 0 1) (* b__122 a__108))) 0) (>= (+ (* b__122 a__109 a__6) (* (- 0 1) (* b__122 a__109))) 0) (>= (+ (* b__122 a__5) (* b__122 a__110 a__6) (* (- 0 1) (* b__122 a__110)) (* (- 0 1) (* b__122 a__5 a__111))) 0) (>= (+ (* b__122 a__112 a__6) (* (- 0 1) (* b__122 a__112))) 0) (>= (+ (* b__122 a__113 a__6) (* (- 0 1) (* b__122 a__113))) 0) (>= (+ (* b__122 a__5) (* b__122 a__114 a__6) (* (- 0 1) (* b__122 a__114)) (* (- 0 1) (* b__122 a__5 a__115))) 0) (>= (+ (* b__122 a__116 a__6) (* (- 0 1) (* b__122 a__116))) 0) (>= (+ (* b__122 a__5) (* b__122 a__117 a__6) (* (- 0 1) (* b__122 a__117)) (* (- 0 1) (* b__122 a__5 a__118))) 0) (>= (+ (* b__122 a__5) (* b__122 a__119 a__6) (* (- 0 1) (* b__122 a__119)) (* (- 0 1) (* b__122 a__5 a__120))) 0) (>= (+ (* b__122 a__9) (* b__122 a__11 a__10) (* (- 0 1) (* b__122 a__3)) (* (- 0 1) (* b__122 a__11 a__4))) 0) (>= (+ (* b__122 a__9) (* b__122 a__12 a__10) (* (- 0 1) (* b__122 a__12)) (* (- 0 1) (* b__122 a__9 a__13)) (* (- 0 1) (* b__122 a__9 a__14))) 0) (>= (+ (* b__122 a__9) (* b__122 a__15 a__10) (* (- 0 1) (* b__122 a__3)) (* (- 0 1) (* b__122 a__15 a__4))) 0) (>= (+ (* b__122 a__9) (* b__122 a__16 a__10) (* (- 0 1) (* b__122 a__16)) (* (- 0 1) (* b__122 a__9 a__17)) (* (- 0 1) (* b__122 a__9 a__18))) 0) (>= (+ (* b__122 a__9) (* b__122 a__19 a__10) (* (- 0 1) (* b__122 a__3)) (* (- 0 1) (* b__122 a__19 a__4))) 0) (>= (+ (* b__122 a__9) (* b__122 a__20 a__10) (* (- 0 1) (* b__122 a__20)) (* (- 0 1) (* b__122 a__9 a__21)) (* (- 0 1) (* b__122 a__9 a__22))) 0) (>= (+ (* b__122 a__9) (* b__122 a__23 a__10) (* (- 0 1) (* b__122 a__23)) (* (- 0 1) (* b__122 a__9 a__24))) 0) (>= (+ (* b__122 a__9) (* b__122 a__25 a__10) (* (- 0 1) (* b__122 a__25)) (* (- 0 1) (* b__122 a__9 a__26))) 0) (>= (+ (* b__122 a__9) (* b__122 a__27 a__10) (* (- 0 1) (* b__122 a__27)) (* (- 0 1) (* b__122 a__9 a__28))) 0) (>= (+ (* b__122 a__9) (* b__122 a__29 a__10) (* (- 0 1) (* b__122 a__29)) (* (- 0 1) (* b__122 a__9 a__30)) (* (- 0 1) (* b__122 a__9 a__31))) 0) (>= (+ (* b__122 a__9) (* b__122 a__32 a__10) (* (- 0 1) (* b__122 a__32)) (* (- 0 1) (* b__122 a__9 a__33)) (* (- 0 1) (* b__122 a__9 a__34))) 0) (>= (+ (* b__122 a__9) (* b__122 a__35 a__10) (* (- 0 1) (* b__122 a__35)) (* (- 0 1) (* b__122 a__9 a__36))) 0) (>= (+ (* b__122 a__9) (* b__122 a__37 a__10) (* (- 0 1) (* b__122 a__37)) (* (- 0 1) (* b__122 a__9 a__38))) 0) (>= (+ (* b__122 a__9) (* b__122 a__39 a__10) (* (- 0 1) (* b__122 a__39)) (* (- 0 1) (* b__122 a__9 a__40))) 0) (>= (+ (* b__122 a__9) (* b__122 a__41 a__10) (* (- 0 1) (* b__122 a__41)) (* (- 0 1) (* b__122 a__9 a__42)) (* (- 0 1) (* b__122 a__9 a__43))) 0) (>= (+ (* b__122 a__9) (* b__122 a__44 a__10) (* (- 0 1) (* b__122 a__44)) (* (- 0 1) (* b__122 a__9 a__45)) (* (- 0 1) (* b__122 a__9 a__46))) 0) (>= (+ (* b__122 a__9) (* b__122 a__47 a__10) (* (- 0 1) (* b__122 a__47)) (* (- 0 1) (* b__122 a__9 a__48))) 0) (>= (+ (* b__122 a__9) (* b__122 a__49 a__10) (* (- 0 1) (* b__122 a__49)) (* (- 0 1) (* b__122 a__9 a__50)) (* (- 0 1) (* b__122 a__9 a__51)) (* (- 0 1) (* b__122 a__9 a__52))) 0) (>= (+ (* b__122 a__9) (* b__122 a__53 a__10) (* (- 0 1) (* b__122 a__53)) (* (- 0 1) (* b__122 a__9 a__54)) (* (- 0 1) (* b__122 a__9 a__55)) (* (- 0 1) (* b__122 a__9 a__56))) 0) (>= (+ (* b__122 a__9) (* b__122 a__57 a__10) (* (- 0 1) (* b__122 a__57)) (* (- 0 1) (* b__122 a__9 a__58)) (* (- 0 1) (* b__122 a__9 a__59)) (* (- 0 1) (* b__122 a__9 a__60))) 0) (>= (+ (* b__122 a__9) (* b__122 a__61 a__10) (* (- 0 1) (* b__122 a__61)) (* (- 0 1) (* b__122 a__9 a__62)) (* (- 0 1) (* b__122 a__9 a__63)) (* (- 0 1) (* b__122 a__9 a__64))) 0) (>= (+ (* b__122 a__9) (* b__122 a__65 a__10) (* (- 0 1) (* b__122 a__65)) (* (- 0 1) (* b__122 a__9 a__66)) (* (- 0 1) (* b__122 a__9 a__67))) 0) (>= (+ (* b__122 a__9) (* b__122 a__68 a__10) (* (- 0 1) (* b__122 a__68)) (* (- 0 1) (* b__122 a__9 a__69))) 0) (>= (+ (* b__122 a__9) (* b__122 a__70 a__10) (* (- 0 1) (* b__122 a__70)) (* (- 0 1) (* b__122 a__9 a__71))) 0) (>= (+ (* b__122 a__9) (* b__122 a__72 a__10) (* (- 0 1) (* b__122 a__72)) (* (- 0 1) (* b__122 a__9 a__73)) (* (- 0 1) (* b__122 a__9 a__74))) 0) (>= (+ (* b__122 a__9) (* b__122 a__75 a__10) (* (- 0 1) (* b__122 a__75)) (* (- 0 1) (* b__122 a__9 a__76))) 0) (>= (+ (* b__122 a__9) (* b__122 a__77 a__10) (* (- 0 1) (* b__122 a__77)) (* (- 0 1) (* b__122 a__9 a__78))) 0) (>= (+ (* b__122 a__9) (* b__122 a__79 a__10) (* (- 0 1) (* b__122 a__79)) (* (- 0 1) (* b__122 a__9 a__80))) 0) (>= (+ (* b__122 a__9) (* b__122 a__81 a__10) (* (- 0 1) (* b__122 a__81)) (* (- 0 1) (* b__122 a__9 a__82)) (* (- 0 1) (* b__122 a__9 a__83)) (* (- 0 1) (* b__122 a__9 a__84))) 0) (>= (+ (* b__122 a__9) (* b__122 a__85 a__10) (* (- 0 1) (* b__122 a__85)) (* (- 0 1) (* b__122 a__9 a__86)) (* (- 0 1) (* b__122 a__9 a__87)) (* (- 0 1) (* b__122 a__9 a__88))) 0) (>= (+ (* b__122 a__9) (* b__122 a__89 a__10) (* (- 0 1) (* b__122 a__89)) (* (- 0 1) (* b__122 a__9 a__90)) (* (- 0 1) (* b__122 a__9 a__91)) (* (- 0 1) (* b__122 a__9 a__92))) 0) (>= (+ (* b__122 a__9) (* b__122 a__93 a__10) (* (- 0 1) (* b__122 a__93)) (* (- 0 1) (* b__122 a__9 a__94)) (* (- 0 1) (* b__122 a__9 a__95)) (* (- 0 1) (* b__122 a__9 a__96))) 0) (>= (+ (* b__122 a__9) (* b__122 a__97 a__10) (* (- 0 1) (* b__122 a__97)) (* (- 0 1) (* b__122 a__9 a__98)) (* (- 0 1) (* b__122 a__9 a__99))) 0) (>= (+ (* b__122 a__9) (* b__122 a__100 a__10) (* (- 0 1) (* b__122 a__100)) (* (- 0 1) (* b__122 a__9 a__101))) 0) (>= (+ (* b__122 a__9) (* b__122 a__102 a__10) (* (- 0 1) (* b__122 a__102)) (* (- 0 1) (* b__122 a__9 a__103)) (* (- 0 1) (* b__122 a__9 a__104)) (* (- 0 1) (* b__122 a__9 a__105))) 0) (>= (+ (* b__122 a__9) (* b__122 a__106 a__10) (* (- 0 1) (* b__122 a__106)) (* (- 0 1) (* b__122 a__9 a__107)) (* (- 0 1) (* b__122 a__9 a__108)) (* (- 0 1) (* b__122 a__9 a__109))) 0) (>= (+ (* b__122 a__9) (* b__122 a__110 a__10) (* (- 0 1) (* b__122 a__110)) (* (- 0 1) (* b__122 a__9 a__111)) (* (- 0 1) (* b__122 a__9 a__112)) (* (- 0 1) (* b__122 a__9 a__113))) 0) (>= (+ (* b__122 a__9) (* b__122 a__114 a__10) (* (- 0 1) (* b__122 a__114)) (* (- 0 1) (* b__122 a__9 a__115)) (* (- 0 1) (* b__122 a__9 a__116))) 0) (>= (+ (* b__122 a__9) (* b__122 a__117 a__10) (* (- 0 1) (* b__122 a__117)) (* (- 0 1) (* b__122 a__9 a__118))) 0) (>= (+ (* b__122 a__9) (* b__122 a__119 a__10) (* (- 0 1) (* b__122 a__119)) (* (- 0 1) (* b__122 a__9 a__120))) 0) (>= (+ (* b__122 a__9) (* b__122 a__121 a__10) (* (- 0 1) (* b__122 a__3)) (* (- 0 1) (* b__122 a__121 a__4))) 0) (>= (+ (* b__122 a__16) (* b__122 a__7 a__17) (* (- 0 1) (* b__122 a__7)) (* (- 0 1) (* b__122 a__16 a__8))) 0) (>= (+ (* b__122 a__18) (* (- 0 1) (* b__122 a__18 a__8))) 0) (>= (+ (* b__122 a__16) (* b__122 a__3 a__17) (* b__122 a__3 a__18) (* (- 0 1) (* b__122 a__3)) (* (- 0 1) (* b__122 a__16 a__4))) 0) (>= (+ (* b__122 a__12) (* b__122 a__7 a__13) (* (- 0 1) (* b__122 a__7)) (* (- 0 1) (* b__122 a__12 a__8))) 0) (>= (+ (* b__122 a__14) (* (- 0 1) (* b__122 a__14 a__8))) 0) (>= (+ (* b__122 a__12) (* b__122 a__3 a__13) (* b__122 a__3 a__14) (* (- 0 1) (* b__122 a__3)) (* (- 0 1) (* b__122 a__12 a__4))) 0) (>= (+ (* b__122 a__20) (* b__122 a__7 a__21) (* (- 0 1) (* b__122 a__7)) (* (- 0 1) (* b__122 a__20 a__8))) 0) (>= (+ (* b__122 a__22) (* (- 0 1) (* b__122 a__22 a__8))) 0) (>= (+ (* b__122 a__20) (* b__122 a__3 a__21) (* b__122 a__3 a__22) (* (- 0 1) (* b__122 a__3)) (* (- 0 1) (* b__122 a__20 a__4))) 0) (>= (+ (* b__122 a__25) (* b__122 a__7 a__26) (* (- 0 1) (* b__122 a__7)) (* (- 0 1) (* b__122 a__25 a__8))) 0) (>= (+ (* b__122 a__25) (* b__122 a__3 a__26) (* (- 0 1) (* b__122 a__3)) (* (- 0 1) (* b__122 a__25 a__4))) 0) (>= (+ (* b__122 a__29) (* b__122 a__7 a__30) (* (- 0 1) (* b__122 a__7)) (* (- 0 1) (* b__122 a__29 a__8))) 0) (>= (+ (* b__122 a__31) (* (- 0 1) (* b__122 a__31 a__8))) 0) (>= (+ (* b__122 a__29) (* b__122 a__3 a__30) (* b__122 a__3 a__31) (* (- 0 1) (* b__122 a__3)) (* (- 0 1) (* b__122 a__29 a__4))) 0) (>= (+ (* b__122 a__32) (* b__122 a__7 a__33) (* (- 0 1) (* b__122 a__7)) (* (- 0 1) (* b__122 a__32 a__8))) 0) (>= (+ (* b__122 a__34) (* (- 0 1) (* b__122 a__34 a__8))) 0) (>= (+ (* b__122 a__32) (* b__122 a__3 a__33) (* b__122 a__3 a__34) (* (- 0 1) (* b__122 a__3)) (* (- 0 1) (* b__122 a__32 a__4))) 0) (>= (+ (* b__122 a__37) (* b__122 a__7 a__38) (* (- 0 1) (* b__122 a__7)) (* (- 0 1) (* b__122 a__37 a__8))) 0) (>= (+ (* b__122 a__37) (* b__122 a__3 a__38) (* (- 0 1) (* b__122 a__3)) (* (- 0 1) (* b__122 a__37 a__4))) 0) (>= (+ (* b__122 a__41) (* b__122 a__7 a__42) (* (- 0 1) (* b__122 a__7)) (* (- 0 1) (* b__122 a__41 a__8))) 0) (>= (+ (* b__122 a__43) (* (- 0 1) (* b__122 a__43 a__8))) 0) (>= (+ (* b__122 a__41) (* b__122 a__3 a__42) (* b__122 a__3 a__43) (* (- 0 1) (* b__122 a__3)) (* (- 0 1) (* b__122 a__41 a__4))) 0) (>= (+ (* b__122 a__44) (* b__122 a__7 a__45) (* (- 0 1) (* b__122 a__7)) (* (- 0 1) (* b__122 a__44 a__8))) 0) (>= (+ (* b__122 a__46) (* (- 0 1) (* b__122 a__46 a__8))) 0) (>= (+ (* b__122 a__44) (* b__122 a__3 a__45) (* b__122 a__3 a__46) (* (- 0 1) (* b__122 a__3)) (* (- 0 1) (* b__122 a__44 a__4))) 0) (>= (+ (* b__122 a__47) (* b__122 a__7 a__48) (* (- 0 1) (* b__122 a__7)) (* (- 0 1) (* b__122 a__47 a__8))) 0) (>= (+ (* b__122 a__47) (* b__122 a__3 a__48) (* (- 0 1) (* b__122 a__3)) (* (- 0 1) (* b__122 a__47 a__4))) 0) (>= (+ (* b__122 a__49) (* b__122 a__7 a__50) (* (- 0 1) (* b__122 a__7)) (* (- 0 1) (* b__122 a__49 a__8))) 0) (>= (+ (* b__122 a__51) (* (- 0 1) (* b__122 a__51 a__8))) 0) (>= (+ (* b__122 a__52) (* (- 0 1) (* b__122 a__52 a__8))) 0) (>= (+ (* b__122 a__49) (* b__122 a__3 a__50) (* b__122 a__3 a__51) (* b__122 a__3 a__52) (* (- 0 1) (* b__122 a__3)) (* (- 0 1) (* b__122 a__49 a__4))) 0) (>= (+ (* b__122 a__53) (* b__122 a__7 a__54) (* (- 0 1) (* b__122 a__7)) (* (- 0 1) (* b__122 a__53 a__8))) 0) (>= (+ (* b__122 a__55) (* (- 0 1) (* b__122 a__55 a__8))) 0) (>= (+ (* b__122 a__56) (* (- 0 1) (* b__122 a__56 a__8))) 0) (>= (+ (* b__122 a__53) (* b__122 a__3 a__54) (* b__122 a__3 a__55) (* b__122 a__3 a__56) (* (- 0 1) (* b__122 a__3)) (* (- 0 1) (* b__122 a__53 a__4))) 0) (>= (+ (* b__122 a__57) (* b__122 a__7 a__58) (* (- 0 1) (* b__122 a__7)) (* (- 0 1) (* b__122 a__57 a__8))) 0) (>= (+ (* b__122 a__59) (* (- 0 1) (* b__122 a__59 a__8))) 0) (>= (+ (* b__122 a__60) (* (- 0 1) (* b__122 a__60 a__8))) 0) (>= (+ (* b__122 a__57) (* b__122 a__3 a__58) (* b__122 a__3 a__59) (* b__122 a__3 a__60) (* (- 0 1) (* b__122 a__3)) (* (- 0 1) (* b__122 a__57 a__4))) 0) (>= (+ (* b__122 a__61) (* b__122 a__7 a__62) (* (- 0 1) (* b__122 a__7)) (* (- 0 1) (* b__122 a__61 a__8))) 0) (>= (+ (* b__122 a__63) (* (- 0 1) (* b__122 a__63 a__8))) 0) (>= (+ (* b__122 a__64) (* (- 0 1) (* b__122 a__64 a__8))) 0) (>= (+ (* b__122 a__61) (* b__122 a__3 a__62) (* b__122 a__3 a__63) (* b__122 a__3 a__64) (* (- 0 1) (* b__122 a__3)) (* (- 0 1) (* b__122 a__61 a__4))) 0) (>= (+ (* b__122 a__65) (* b__122 a__7 a__66) (* (- 0 1) (* b__122 a__7)) (* (- 0 1) (* b__122 a__65 a__8))) 0) (>= (+ (* b__122 a__67) (* (- 0 1) (* b__122 a__67 a__8))) 0) (>= (+ (* b__122 a__65) (* b__122 a__3 a__66) (* b__122 a__3 a__67) (* (- 0 1) (* b__122 a__3)) (* (- 0 1) (* b__122 a__65 a__4))) 0) (>= (+ (* b__122 a__68) (* b__122 a__7 a__69) (* (- 0 1) (* b__122 a__7)) (* (- 0 1) (* b__122 a__68 a__8))) 0) (>= (+ (* b__122 a__68) (* b__122 a__3 a__69) (* (- 0 1) (* b__122 a__3)) (* (- 0 1) (* b__122 a__68 a__4))) 0) (>= (+ (* b__122 a__72) (* b__122 a__7 a__73) (* (- 0 1) (* b__122 a__7)) (* (- 0 1) (* b__122 a__72 a__8))) 0) (>= (+ (* b__122 a__74) (* (- 0 1) (* b__122 a__74 a__8))) 0) (>= (+ (* b__122 a__72) (* b__122 a__3 a__73) (* b__122 a__3 a__74) (* (- 0 1) (* b__122 a__3)) (* (- 0 1) (* b__122 a__72 a__4))) 0) (>= (+ (* b__122 a__75) (* b__122 a__7 a__76) (* (- 0 1) (* b__122 a__7)) (* (- 0 1) (* b__122 a__75 a__8))) 0) (>= (+ (* b__122 a__75) (* b__122 a__3 a__76) (* (- 0 1) (* b__122 a__3)) (* (- 0 1) (* b__122 a__75 a__4))) 0) (>= (+ (* b__122 a__77) (* b__122 a__7 a__78) (* (- 0 1) (* b__122 a__7)) (* (- 0 1) (* b__122 a__77 a__8))) 0) (>= (+ (* b__122 a__77) (* b__122 a__3 a__78) (* (- 0 1) (* b__122 a__3)) (* (- 0 1) (* b__122 a__77 a__4))) 0) (>= (+ (* b__122 a__79) (* b__122 a__7 a__80) (* (- 0 1) (* b__122 a__7)) (* (- 0 1) (* b__122 a__79 a__8))) 0) (>= (+ (* b__122 a__79) (* b__122 a__3 a__80) (* (- 0 1) (* b__122 a__3)) (* (- 0 1) (* b__122 a__79 a__4))) 0) (>= (+ (* b__122 a__81) (* b__122 a__7 a__82) (* (- 0 1) (* b__122 a__7)) (* (- 0 1) (* b__122 a__81 a__8))) 0) (>= (+ (* b__122 a__83) (* (- 0 1) (* b__122 a__83 a__8))) 0) (>= (+ (* b__122 a__84) (* (- 0 1) (* b__122 a__84 a__8))) 0) (>= (+ (* b__122 a__81) (* b__122 a__3 a__82) (* b__122 a__3 a__83) (* b__122 a__3 a__84) (* (- 0 1) (* b__122 a__3)) (* (- 0 1) (* b__122 a__81 a__4))) 0) (>= (+ (* b__122 a__85) (* b__122 a__7 a__86) (* (- 0 1) (* b__122 a__7)) (* (- 0 1) (* b__122 a__85 a__8))) 0) (>= (+ (* b__122 a__87) (* (- 0 1) (* b__122 a__87 a__8))) 0) (>= (+ (* b__122 a__88) (* (- 0 1) (* b__122 a__88 a__8))) 0) (>= (+ (* b__122 a__85) (* b__122 a__3 a__86) (* b__122 a__3 a__87) (* b__122 a__3 a__88) (* (- 0 1) (* b__122 a__3)) (* (- 0 1) (* b__122 a__85 a__4))) 0) (>= (+ (* b__122 a__89) (* b__122 a__7 a__90) (* (- 0 1) (* b__122 a__7)) (* (- 0 1) (* b__122 a__89 a__8))) 0) (>= (+ (* b__122 a__91) (* (- 0 1) (* b__122 a__91 a__8))) 0) (>= (+ (* b__122 a__92) (* (- 0 1) (* b__122 a__92 a__8))) 0) (>= (+ (* b__122 a__89) (* b__122 a__3 a__90) (* b__122 a__3 a__91) (* b__122 a__3 a__92) (* (- 0 1) (* b__122 a__3)) (* (- 0 1) (* b__122 a__89 a__4))) 0) (>= (+ (* b__122 a__93) (* b__122 a__7 a__94) (* (- 0 1) (* b__122 a__7)) (* (- 0 1) (* b__122 a__93 a__8))) 0) (>= (+ (* b__122 a__95) (* (- 0 1) (* b__122 a__95 a__8))) 0) (>= (+ (* b__122 a__96) (* (- 0 1) (* b__122 a__96 a__8))) 0) (>= (+ (* b__122 a__93) (* b__122 a__3 a__94) (* b__122 a__3 a__95) (* b__122 a__3 a__96) (* (- 0 1) (* b__122 a__3)) (* (- 0 1) (* b__122 a__93 a__4))) 0) (>= (+ (* b__122 a__97) (* b__122 a__7 a__98) (* (- 0 1) (* b__122 a__7)) (* (- 0 1) (* b__122 a__97 a__8))) 0) (>= (+ (* b__122 a__99) (* (- 0 1) (* b__122 a__99 a__8))) 0) (>= (+ (* b__122 a__97) (* b__122 a__3 a__98) (* b__122 a__3 a__99) (* (- 0 1) (* b__122 a__3)) (* (- 0 1) (* b__122 a__97 a__4))) 0) (>= (+ (* b__122 a__100) (* b__122 a__7 a__101) (* (- 0 1) (* b__122 a__7)) (* (- 0 1) (* b__122 a__100 a__8))) 0) (>= (+ (* b__122 a__100) (* b__122 a__3 a__101) (* (- 0 1) (* b__122 a__3)) (* (- 0 1) (* b__122 a__100 a__4))) 0) (>= (+ (* b__122 a__102) (* b__122 a__7 a__103) (* (- 0 1) (* b__122 a__7)) (* (- 0 1) (* b__122 a__102 a__8))) 0) (>= (+ (* b__122 a__104) (* (- 0 1) (* b__122 a__104 a__8))) 0) (>= (+ (* b__122 a__105) (* (- 0 1) (* b__122 a__105 a__8))) 0) (>= (+ (* b__122 a__102) (* b__122 a__3 a__103) (* b__122 a__3 a__104) (* b__122 a__3 a__105) (* (- 0 1) (* b__122 a__3)) (* (- 0 1) (* b__122 a__102 a__4))) 0) (>= (+ (* b__122 a__106) (* b__122 a__7 a__107) (* (- 0 1) (* b__122 a__7)) (* (- 0 1) (* b__122 a__106 a__8))) 0) (>= (+ (* b__122 a__108) (* (- 0 1) (* b__122 a__108 a__8))) 0) (>= (+ (* b__122 a__109) (* (- 0 1) (* b__122 a__109 a__8))) 0) (>= (+ (* b__122 a__106) (* b__122 a__3 a__107) (* b__122 a__3 a__108) (* b__122 a__3 a__109) (* (- 0 1) (* b__122 a__3)) (* (- 0 1) (* b__122 a__106 a__4))) 0) (>= (+ (* b__122 a__110) (* b__122 a__7 a__111) (* (- 0 1) (* b__122 a__7)) (* (- 0 1) (* b__122 a__110 a__8))) 0) (>= (+ (* b__122 a__112) (* (- 0 1) (* b__122 a__112 a__8))) 0) (>= (+ (* b__122 a__113) (* (- 0 1) (* b__122 a__113 a__8))) 0) (>= (+ (* b__122 a__110) (* b__122 a__3 a__111) (* b__122 a__3 a__112) (* b__122 a__3 a__113) (* (- 0 1) (* b__122 a__3)) (* (- 0 1) (* b__122 a__110 a__4))) 0) (>= (+ (* b__122 a__114) (* b__122 a__7 a__115) (* (- 0 1) (* b__122 a__7)) (* (- 0 1) (* b__122 a__114 a__8))) 0) (>= (+ (* b__122 a__116) (* (- 0 1) (* b__122 a__116 a__8))) 0) (>= (+ (* b__122 a__114) (* b__122 a__3 a__115) (* b__122 a__3 a__116) (* (- 0 1) (* b__122 a__3)) (* (- 0 1) (* b__122 a__114 a__4))) 0) (>= (+ (* b__122 a__117) (* b__122 a__7 a__118) (* (- 0 1) (* b__122 a__7)) (* (- 0 1) (* b__122 a__117 a__8))) 0) (>= (+ (* b__122 a__117) (* b__122 a__3 a__118) (* (- 0 1) (* b__122 a__3)) (* (- 0 1) (* b__122 a__117 a__4))) 0) (>= (+ (* b__122 a__119) (* b__122 a__7 a__120) (* (- 0 1) (* b__122 a__7)) (* (- 0 1) (* b__122 a__119 a__8))) 0) (>= (+ (* b__122 a__119) (* b__122 a__3 a__120) (* (- 0 1) (* b__122 a__3)) (* (- 0 1) (* b__122 a__119 a__4))) 0) (>= (+ (* b__122 a__23) (* b__122 a__3 a__24) (* (- 0 1) (* b__122 a__3)) (* (- 0 1) (* b__122 a__23 a__4))) 0) (>= (+ (* b__122 a__27) (* b__122 a__3 a__28) (* (- 0 1) (* b__122 a__3)) (* (- 0 1) (* b__122 a__27 a__4))) 0) (>= (+ (* b__122 a__35) (* b__122 a__3 a__36) (* (- 0 1) (* b__122 a__3)) (* (- 0 1) (* b__122 a__35 a__4))) 0) (>= (+ (* b__122 a__39) (* b__122 a__3 a__40) (* (- 0 1) (* b__122 a__3)) (* (- 0 1) (* b__122 a__39 a__4))) 0) (>= (+ (* b__122 a__70) (* b__122 a__3 a__71) (* (- 0 1) (* b__122 a__3)) (* (- 0 1) (* b__122 a__70 a__4))) 0) (>= (+ (* a__3 a__2) (* (- 0 1) (* a__5 a__2))) 0) (>= (+ (* a__7 a__2) (* (- 0 1) (* a__9 a__2))) 0) (not (and (= (+ (* a__3 a__2) (* (- 0 1) (* a__5 a__2))) 0) (= (+ (* a__7 a__2) (* (- 0 1) (* a__9 a__2))) 0))) (>= b__122 0) (>= 1 b__122) (>= a__2 0) (>= a__4 0) (>= a__6 0) (>= a__8 0) (>= a__10 0) (>= a__5 0) (>= a__11 0) (>= a__7 0) (>= a__12 0) (>= a__15 0) (>= a__13 0) (>= a__14 0) (>= a__16 0) (>= a__19 0) (>= a__17 0) (>= a__20 0) (>= a__23 0) (>= a__21 0) (>= a__18 0) (>= a__24 0) (>= a__22 0) (>= a__25 0) (>= a__27 0) (>= a__26 0) (>= a__28 0) (>= a__29 0) (>= a__30 0) (>= a__32 0) (>= a__35 0) (>= a__33 0) (>= a__31 0) (>= a__36 0) (>= a__34 0) (>= a__37 0) (>= a__39 0) (>= a__38 0) (>= a__40 0) (>= a__41 0) (>= a__42 0) (>= a__44 0) (>= a__45 0) (>= a__43 0) (>= a__46 0) (>= a__47 0) (>= a__48 0) (>= a__49 0) (>= a__50 0) (>= a__53 0) (>= a__54 0) (>= a__51 0) (>= a__55 0) (>= a__52 0) (>= a__56 0) (>= a__57 0) (>= a__58 0) (>= a__59 0) (>= a__60 0) (>= a__61 0) (>= a__62 0) (>= a__63 0) (>= a__64 0) (>= a__65 0) (>= a__66 0) (>= a__67 0) (>= a__68 0) (>= a__70 0) (>= a__69 0) (>= a__71 0) (>= a__72 0) (>= a__73 0) (>= a__75 0) (>= a__76 0) (>= a__74 0) (>= a__77 0) (>= a__78 0) (>= a__79 0) (>= a__80 0) (>= a__81 0) (>= a__82 0) (>= a__85 0) (>= a__86 0) (>= a__83 0) (>= a__87 0) (>= a__84 0) (>= a__88 0) (>= a__89 0) (>= a__90 0) (>= a__91 0) (>= a__92 0) (>= a__93 0) (>= a__94 0) (>= a__95 0) (>= a__96 0) (>= a__97 0) (>= a__98 0) (>= a__99 0) (>= a__100 0) (>= a__101 0) (>= a__102 0) (>= a__103 0) (>= a__106 0) (>= a__107 0) (>= a__104 0) (>= a__108 0) (>= a__105 0) (>= a__109 0) (>= a__110 0) (>= a__111 0) (>= a__112 0) (>= a__113 0) (>= a__114 0) (>= a__115 0) (>= a__116 0) (>= a__117 0) (>= a__119 0) (>= a__118 0) (>= a__120 0) (>= a__121 0) (>= a__9 0) (>= a__3 0)))
(check-sat)
;;(get-assignment)
;;(get-model)
(exit)
